n_machines = 5;
n_resources = 10;
n_jobs = 200;
horizon = 1029;
LB = 205;
n_jobs_per_resource = [20, 20, 20, 20, 20, 20, 20, 20, 20, 20];
duration = [2, 8, 7, 9, 4, 1, 7, 2, 8, 7, 3, 7, 8, 3, 5, 7, 4, 2, 2, 3, 6, 6, 5, 5, 4, 6, 1, 8, 4, 7, 7, 8, 1, 7, 7, 9, 7, 9, 8, 1, 1, 1, 8, 2, 1, 1, 5, 9, 8, 1, 3, 2, 8, 9, 8, 4, 4, 9, 5, 6, 6, 1, 4, 8, 7, 6, 9, 9, 9, 9, 8, 8, 7, 8, 4, 2, 4, 1, 8, 4, 4, 2, 1, 3, 6, 7, 5, 4, 9, 6, 7, 5, 8, 8, 3, 1, 2, 4, 2, 5, 9, 8, 8, 9, 2, 3, 7, 2, 2, 5, 9, 8, 6, 6, 3, 4, 5, 7, 3, 7, 1, 4, 8, 2, 8, 7, 1, 6, 3, 1, 9, 6, 4, 8, 6, 7, 3, 4, 9, 1, 9, 6, 3, 5, 4, 4, 4, 6, 5, 1, 8, 1, 5, 2, 1, 3, 9, 5, 9, 8, 8, 2, 7, 2, 3, 1, 2, 9, 8, 3, 7, 3, 8, 1, 8, 5, 7, 2, 3, 3, 4, 5, 7, 4, 6, 5, 6, 6, 9, 7, 6, 1, 2, 8, 8, 2, 3, 1, 9, 5]